data;
param n:= 10;

set S := (4, 6) (2, 9) (6, 9) (3, 6) (8, 10) (3, 10) (5, 7) (2, 8) (1, 8) (7, 9) (4, 8) (7, 8) (4, 10) (5, 9) (4, 7) (5, 6) (9, 10) (6, 8) (4, 5) (2, 5) (3, 7) (2, 3) (4, 9) (2, 10) (6, 7) (6, 10) (1, 5) (2, 6);

param t [1] 1 [2] 1 [3] 3 [4] 8 [5] 3 [6] 7 [7] 8 [8] 10 [9] 3 [10] 3;
param d [1] 7 [2] 13 [3] 3 [4] 13 [5] 18 [6] 20 [7] 8 [8] 13 [9] 19 [10] 9;

end;